700.21 0
0 3 44 24 49 23 56 41 64 42 43 63 16 51 0
0 40 9 39 31 25 55 18 50 32 17 0
0 34 52 27 15 57 13 54 59 14 19 8 46 0
0 6 33 73 1 22 62 28 61 21 74 2 68 0
0 26 67 4 0
0 75 30 48 47 36 69 71 60 70 20 37 5 29 45 0
0 7 35 53 11 66 65 38 10 58 72 12 0
